1 0
2 0
3 0
4 0
5 0
6 0
7 0
8 0
9 0
10 0
11 0
12 0
13 0
14 0
15 0
16 0
17 0
18 0
19 0
20 0
21 0
22 0
23 0
24 0
25 0
26 0
27 0
28 0
29 0
30 0
31 0
32 0
33 0
34 0
35 0
36 0
37 0
38 0
39 0
40 0
41 0
42 0
43 0
44 0
45 0
46 0
47 0
48 0
49 0
50 0
51 0
52 0
53 0
54 0
55 0
56 0
57 0
58 0
59 0
60 0
61 0
62 0
63 0
64 0
65 0
66 0
67 0
68 0
69 0
70 0
71 0
72 0
73 0
74 0
75 0
76 0
77 0
78 0
79 0
80 0
81 0
82 0
83 0
84 0
85 0
86 0
87 0
88 0
89 0
90 0
91 0
92 0
93 0
94 0
95 0
96 0
97 0
98 0
99 0
100 0
101 0
102 0
103 0
104 0
105 0
106 0
107 0
108 0
109 0
110 0
111 0
112 0
113 0
114 0
115 0
116 0
117 0
118 0
119 0
120 0
121 0
122 0
123 0
124 0
125 0
126 0
127 0
128 0
129 0
130 0
131 0
132 0
133 0
134 0
135 0
136 0
137 0
138 0
139 0
140 0
141 0
142 0
143 0
144 0
145 0
146 0
147 0
148 0
149 0
150 0
151 0
152 0
153 0
154 0
155 0
156 0
157 0
158 0
159 0
160 0
161 0
162 0
163 0
164 0
165 0
166 0
167 0
168 0
169 0
170 0
171 0
172 0
173 0
174 0
175 0
176 0
177 0
178 0
179 0
180 0
181 0
182 0
183 0
184 0
185 0
186 0
187 0
188 0
189 0
190 0
191 0
192 0
193 0
194 0
195 0
196 0
197 0
198 0
199 0
200 0
201 0
202 0
203 0
204 0
205 0
206 0
207 0
208 0
209 0
210 0
211 0
212 0
213 0
214 0
215 0
216 0
217 0
218 0
219 0
220 0
221 0
222 0
223 0
224 0
225 0
226 0
227 0
228 0
229 0
230 0
231 0
232 0
233 0
234 0
235 0
236 0
237 0
238 0
239 0
240 0
241 0
242 0
243 0
244 0
245 0
246 0
247 0
248 0
249 0
250 0
251 0
252 0
253 0
254 0
255 0
256 0
257 0
258 0
259 0
260 0
261 0
262 0
263 0
264 0
265 0
266 0
267 0
268 0
269 0
270 0
271 0
272 0
273 0
274 0
275 0
276 0
277 0
278 0
279 0
280 0
281 0
282 0
283 0
284 0
285 0
286 0
287 0
288 0
289 0
290 0
291 0
292 0
293 0
294 0
295 0
296 0
297 0
298 0
299 0
300 0
301 0
302 0
303 0
304 0
305 0
306 0
307 0
308 0
309 0
310 0
312 0
313 0
314 0
315 0
316 0
317 0
318 0
319 0
320 0
321 0
322 0
323 0
324 0
325 0
327 0
328 0
329 0
330 0
331 0
332 0
333 0
334 0
335 0
336 0
337 0
338 0
339 0
340 0
341 0
342 0
343 0
344 0
345 0
346 0
347 0
348 0
349 0
350 0
351 0
352 0
353 0
354 0
355 0
356 0
357 0
358 0
359 0
360 0
361 0
362 0
363 0
364 0
365 0
366 0
367 0
368 0
369 0
370 0
371 0
372 0
373 0
374 0
375 0
376 0
377 0
378 0
379 0
380 0
381 0
382 0
383 0
384 0
385 0
386 0
388 0
389 0
390 0
392 0
394 0
395 0
396 0
397 0
398 0
399 0
400 0
401 0
402 0
403 0
404 0
405 0
406 0
407 0
408 0
409 0
410 0
411 0
412 0
413 0
414 0
415 0
416 0
417 0
418 0
419 0
420 0
421 0
422 0
423 0
424 0
426 0
427 0
428 0
430 0
431 0
432 0
433 0
434 0
435 0
437 0
438 0
439 0
440 0
441 0
442 0
443 0
444 0
445 0
446 0
447 0
448 0
449 0
450 0
451 0
453 0
454 0
455 0
456 0
457 0
458 0
459 0
460 0
461 0
462 0
463 0
464 0
465 0
466 0
467 0
468 0
469 0
470 0
471 0
472 0
473 0
474 0
475 0
477 0
478 0
479 0
480 0
481 0
482 0
483 0
484 0
485 0
486 0
487 0
488 0
489 0
490 0
491 0
492 0
493 0
494 0
496 0
497 0
498 0
499 0
500 0
501 0
502 0
503 0
505 0
506 0
507 0
508 0
509 0
512 0
513 0
514 0
515 0
516 0
517 0
518 0
519 0
520 0
521 0
523 0
524 0
525 0
526 0
527 0
528 0
529 0
531 0
532 0
533 0
534 0
535 0
536 0
538 0
540 0
541 0
542 0
544 0
545 0
546 0
547 0
549 0
550 0
551 0
552 0
553 0
554 0
556 0
557 0
558 0
559 0
560 0
562 0
563 0
564 0
565 0
566 0
567 0
568 0
569 0
570 0
571 0
572 0
573 0
574 0
575 0
576 0
578 0
579 0
580 0
581 0
582 0
583 0
584 0
585 0
586 0
587 0
588 0
589 0
590 0
591 0
592 0
593 0
594 0
595 0
596 0
597 0
598 0
599 0
600 0
601 0
602 0
603 0
604 0
605 0
606 0
607 0
608 0
609 0
610 0
611 0
612 0
613 0
614 0
615 0
616 0
617 0
618 0
619 0
620 0
621 0
622 0
623 0
624 0
625 0
626 0
627 0
628 0
630 0
631 0
632 0
634 0
635 0
636 0
637 0
638 0
639 0
640 0
641 0
642 0
643 0
644 0
645 0
646 0
647 0
648 0
649 0
650 0
651 0
653 0
654 0
655 0
656 0
657 0
658 0
660 0
661 0
662 0
663 0
664 0
665 0
666 0
667 0
668 0
669 0
672 0
673 0
674 0
675 0
676 0
677 0
678 0
679 0
680 0
681 0
682 0
683 0
684 0
685 0
686 0
687 0
689 0
690 0
691 0
692 0
693 0
694 0
695 0
696 0
697 0
698 0
700 0
701 0
702 0
703 0
705 0
707 0
708 0
712 0
713 0
714 0
715 0
716 0
717 0
718 0
722 0
723 0
724 0
725 0
728 0
730 0
731 0
732 0
733 0
734 0
735 0
736 0
737 0
739 0
741 0
742 0
743 0
744 0
745 0
746 0
748 0
749 0
750 0
751 0
752 0
753 0
754 0
755 0
756 0
757 0
758 0
759 0
760 0
761 0
762 0
763 0
764 0
765 0
767 0
768 0
769 0
770 0
772 0
773 0
774 0
775 0
776 0
777 0
778 0
779 0
781 0
782 0
784 0
785 0
786 0
787 0
788 0
789 0
790 0
791 0
792 0
793 0
794 0
795 0
796 0
797 0
798 0
799 0
800 0
801 0
802 0
803 0
804 0
806 0
808 0
809 0
810 0
811 0
812 0
813 0
814 0
815 0
816 0
817 0
819 0
820 0
821 0
822 0
823 0
824 0
825 0
826 0
827 0
829 0
830 0
831 0
832 0
835 0
836 0
837 0
839 0
841 0
842 0
843 0
845 0
846 0
847 0
849 0
850 0
851 0
852 0
854 0
855 0
856 0
857 0
858 0
859 0
860 0
861 0
862 0
863 0
864 0
865 0
866 0
867 0
869 0
870 0
871 0
872 0
874 0
875 0
877 0
878 0
881 0
882 0
883 0
884 0
885 0
886 0
887 0
888 0
889 0
890 0
891 0
892 0
893 0
895 0
896 0
899 0
900 0
901 0
902 0
903 0
904 0
905 0
906 0
909 0
910 0
911 0
914 0
915 0
916 0
917 0
918 0
919 0
920 0
921 0
922 0
923 0
924 0
927 0
928 0
929 0
930 0
931 0
934 0
935 0
937 0
938 0
939 0
940 0
941 0
942 0
943 0
944 0
945 0
946 0
947 0
949 0
950 0
951 0
952 0
953 0
954 0
955 0
956 0
958 0
959 0
961 0
962 0
964 0
965 0
966 0
967 0
968 0
969 0
970 0
971 0
972 0
973 0
974 0
975 0
976 0
977 0
978 0
979 0
980 0
983 0
984 0
986 0
987 0
988 0
990 0
991 0
992 0
993 0
994 0
995 0
996 0
997 0
998 0
1000 0
1001 0
1002 0
1006 0
1007 0
1009 0
1011 0
1013 0
1014 0
1015 0
1016 0
1018 0
1019 0
1021 0
1023 0
1024 0
1025 0
1027 0
1028 0
1029 0
1032 0
1033 0
1034 0
1035 0
1036 0
1037 0
1038 0
1039 0
1040 0
1041 0
1042 0
1043 0
1044 0
1046 0
1047 0
1048 0
1049 0
1051 0
1052 0
1053 0
1054 0
1055 0
1056 0
1057 0
1058 0
1059 0
1060 0
1061 0
1062 0
1064 0
1065 0
1066 0
1070 0
1071 0
1072 0
1073 0
1075 0
1076 0
1077 0
1078 0
1079 0
1080 0
1081 0
1082 0
1083 0
1084 0
1085 0
1086 0
1088 0
1089 0
1090 0
1091 0
1092 0
1093 0
1094 0
1095 0
1096 0
1097 0
1098 0
1099 0
1100 0
1101 0
1102 0
1104 0
1105 0
1107 0
1108 0
1109 0
1110 0
1111 0
1114 0
1115 0
1119 0
1121 0
1122 0
1126 0
1127 0
1128 0
1131 0
1134 0
1135 0
1136 0
1137 0
1138 0
1139 0
1141 0
1143 0
1144 0
1145 0
1146 0
1147 0
1148 0
1149 0
1151 0
1152 0
1153 0
1154 0
1155 0
1156 0
1157 0
1158 0
1160 0
1161 0
1163 0
1164 0
1165 0
1166 0
1167 0
1169 0
1170 0
1171 0
1172 0
1173 0
1174 0
1178 0
1179 0
1183 0
1184 0
1185 0
1186 0
1187 0
1188 0
1190 0
1191 0
1192 0
1196 0
1197 0
1198 0
1200 0
1203 0
1205 0
1206 0
1208 0
1209 0
1212 0
1213 0
1215 0
1217 0
1219 0
1222 0
1223 0
1224 0
1225 0
1226 0
1227 0
1230 0
1232 0
1233 0
1235 0
1237 0
1238 0
1239 0
1240 0
1241 0
1242 0
1243 0
1244 0
1246 0
1247 0
1249 0
1251 0
1252 0
1253 0
1255 0
1256 0
1257 0
1258 0
1260 0
1261 0
1264 0
1265 0
1268 0
1270 0
1271 0
1273 0
1274 0
1275 0
1278 0
1279 0
1280 0
1281 0
1285 0
1286 0
1287 0
1288 0
1289 0
1290 0
1291 0
1292 0
1293 0
1295 0
1296 0
1297 0
1298 0
1299 0
1303 0
1304 0
1305 0
1306 0
1307 0
1308 0
1309 0
1310 0
1313 0
1314 0
1315 0
1316 0
1317 0
1318 0
1319 0
1321 0
1322 0
1323 0
1324 0
1326 0
1328 0
1329 0
1330 0
1331 0
1332 0
1333 0
1334 0
1335 0
1337 0
1339 0
1340 0
1341 0
1342 0
1343 0
1344 0
1346 0
1348 0
1349 0
1350 0
1352 0
1354 0
1355 0
1356 0
1357 0
1359 0
1362 0
1365 0
1367 0
1369 0
1370 0
1372 0
1373 0
1374 0
1375 0
1376 0
1377 0
1378 0
1379 0
1380 0
1381 0
1382 0
1383 0
1386 0
1388 0
1390 0
1391 0
1392 0
1393 0
1397 0
1400 0
1403 0
1406 0
1407 0
1408 0
1410 0
1412 0
1413 0
1414 0
1415 0
1416 0
1417 0
1418 0
1419 0
1420 0
1422 0
1423 0
1425 0
1426 0
1430 0
1432 0
1433 0
1434 0
1435 0
1436 0
1438 0
1440 0
1441 0
1442 0
1445 0
1446 0
1447 0
1448 0
1449 0
1450 0
1452 0
1453 0
1456 0
1458 0
1459 0
1460 0
1462 0
1463 0
1465 0
1468 0
1470 0
1471 0
1473 0
1474 0
1476 0
1477 0
1483 0
1484 0
1485 0
1486 0
1487 0
1489 0
1490 0
1491 0
1492 0
1494 0
1496 0
1497 0
1499 0
1503 0
1505 0
1506 0
1507 0
1508 0
1509 0
1510 0
1511 0
1514 0
1515 0
1516 0
1517 0
1519 0
1521 0
1523 0
1524 0
1527 0
1528 0
1529 0
1530 0
1533 0
1534 0
1535 0
1536 0
1537 0
1539 0
1541 0
1542 0
1543 0
1544 0
1546 0
1548 0
1550 0
1551 0
1552 0
1553 0
1554 0
1556 0
1557 0
1560 0
1561 0
1564 0
1566 0
1568 0
1569 0
1570 0
1571 0
1573 0
1574 0
1575 0
1577 0
1578 0
1579 0
1580 0
1581 0
1582 0
1583 0
1584 0
1585 0
1586 0
1587 0
1588 0
1589 0
1590 0
1592 0
1595 0
1596 0
1600 0
1603 0
1605 0
1607 0
1609 0
1612 0
1613 0
1614 0
1615 0
1618 0
1623 0
1625 0
1627 0
1630 0
1632 0
1633 0
1634 0
1635 0
1637 0
1638 0
1639 0
1640 0
1642 0
1644 0
1645 0
1646 0
1649 0
1650 0
1656 0
1657 0
1658 0
1660 0
1666 0
1667 0
1669 0
1672 0
1674 0
1676 0
1677 0
1678 0
1679 0
1681 0
1682 0
1684 0
1688 0
1689 0
1690 0
1694 0
1695 0
1697 0
1698 0
1699 0
1700 0
1701 0
1702 0
1703 0
1707 0
1708 0
1710 0
1711 0
1712 0
1713 0
1714 0
1715 0
1716 0
1718 0
1719 0
1722 0
1724 0
1725 0
1726 0
1728 0
1729 0
1730 0
1732 0
1733 0
1734 0
1737 0
1741 0
1742 0
1743 0
1744 0
1746 0
1747 0
1748 0
1749 0
1750 0
1751 0
1752 0
1755 0
1756 0
1757 0
1758 0
1760 0
1762 0
1764 0
1766 0
1768 0
1769 0
1775 0
1777 0
1780 0
1781 0
1782 0
1784 0
1786 0
1788 0
1789 0
1790 0
1791 0
1792 0
1795 0
1796 0
1797 0
1798 0
1799 0
1800 0
1801 0
1802 0
1806 0
1807 0
1808 0
1811 0
1813 0
1816 0
1817 0
1818 0
1819 0
1820 0
1822 0
1825 0
1828 0
1829 0
1830 0
1831 0
1833 0
1834 0
1837 0
1838 0
1841 0
1843 0
1845 0
1846 0
1847 0
1849 0
1850 0
1851 0
1852 0
1854 0
1856 0
1859 0
1861 0
1863 0
1864 0
1865 0
1866 0
1869 0
1870 0
1871 0
1872 0
1874 0
1875 0
1876 0
1877 0
1878 0
1880 0
1881 0
1882 0
1883 0
1884 0
1885 0
1887 0
1888 0
1889 0
1891 0
1892 0
1896 0
1897 0
1898 0
1905 0
1909 0
1910 0
1913 0
1914 0
1915 0
1917 0
1920 0
1921 0
1923 0
1925 0
1926 0
1928 0
1929 0
1932 0
1933 0
1934 0
1935 0
1936 0
1937 0
1938 0
1939 0
1940 0
1945 0
1946 0
1947 0
1949 0
1950 0
1951 0
1952 0
1954 0
1957 0
1959 0
1960 0
1961 0
1965 0
1966 0
1969 0
1970 0
1971 0
1972 0
1973 0
1976 0
1978 0
1980 0
1981 0
1985 0
1986 0
1988 0
1990 0
1991 0
1992 0
1993 0
1994 0
1995 0
1999 0
2000 0
2001 0
2004 0
2006 0
2009 0
2010 0
2011 0
2012 0
2013 0
2018 0
2022 0
2025 0
2027 0
2028 0
2029 0
2030 0
2031 0
2033 0
2034 0
2035 0
2038 0
2040 0
2041 0
2042 0
2043 0
2046 0
2050 0
2053 0
2054 0
2057 0
2058 0
2059 0
2060 0
2067 0
2070 0
2072 0
2073 0
2075 0
2077 0
2079 0
2081 0
2082 0
2083 0
2084 0
2085 0
2090 0
2091 0
2093 0
2095 0
2097 0
2098 0
2099 0
2100 0
2101 0
2102 0
2103 0
2104 0
2107 0
2108 0
2109 0
2110 0
2117 0
2118 0
2120 0
2121 0
2122 0
2125 0
2126 0
2127 0
2129 0
2132 0
2134 0
2138 0
2141 0
2142 0
2143 0
2145 0
2146 0
2148 0
2149 0
2150 0
2151 0
2152 0
2153 0
2155 0
2156 0
2158 0
2160 0
2161 0
2162 0
2163 0
2164 0
2165 0
2167 0
2169 0
2170 0
2173 0
2179 0
2180 0
2185 0
2188 0
2189 0
2190 0
2191 0
2192 0
2197 0
2198 0
2199 0
2200 0
2205 0
2207 0
2208 0
2210 0
2211 0
2213 0
2215 0
2221 0
2222 0
2223 0
2226 0
2232 0
2233 0
2236 0
2238 0
2239 0
2244 0
2247 0
2248 0
2249 0
2250 0
2251 0
2254 0
2255 0
2256 0
2262 0
2263 0
2266 0
2267 0
2273 0
2275 0
2277 0
2278 0
2280 0
2282 0
2285 0
2288 0
2291 0
2292 0
2295 0
2296 0
2299 0
2301 0
2302 0
2303 0
2304 0
2312 0
2313 0
2315 0
2316 0
2317 0
2318 0
2321 0
2322 0
2324 0
2326 0
2327 0
2330 0
2334 0
2338 0
2341 0
2342 0
2344 0
2346 0
2348 0
2349 0
2350 0
2351 0
2355 0
2357 0
2358 0
2360 0
2361 0
2362 0
2364 0
2365 0
2368 0
2370 0
2371 0
2372 0
2374 0
2376 0
2377 0
2378 0
2379 0
2382 0
2383 0
2384 0
2388 0
2389 0
2391 0
2392 0
2395 0
2396 0
2399 0
2402 0
2404 0
2405 0
2407 0
2408 0
2410 0
2411 0
2413 0
2415 0
2416 0
2421 0
2422 0
2423 0
2425 0
2427 0
2428 0
2429 0
2430 0
2431 0
2433 0
2434 0
2441 0
2442 0
2448 0
2450 0
2451 0
2452 0
2453 0
2455 0
2456 0
2457 0
2460 0
2462 0
2465 0
2469 0
2474 0
2477 0
2479 0
2481 0
2482 0
2488 0
2493 0
2498 0
2499 0
2504 0
2505 0
2506 0
2509 0
2510 0
2512 0
2513 0
2515 0
2518 0
2521 0
2525 0
2526 0
2528 0
2532 0
2533 0
2536 0
2538 0
2539 0
2542 0
2544 0
2545 0
2547 0
2551 0
2552 0
2553 0
2556 0
2558 0
2561 0
2566 0
2567 0
2569 0
2570 0
2573 0
2574 0
2575 0
2576 0
2577 0
2579 0
2580 0
2583 0
2584 0
2587 0
2588 0
2589 0
2595 0
2596 0
2597 0
2600 0
2602 0
2609 0
2611 0
2613 0
2614 0
2615 0
2617 0
2618 0
2620 0
2624 0
2629 0
2631 0
2633 0
2635 0
2641 0
2645 0
2646 0
2647 0
2648 0
2649 0
2651 0
2657 0
2659 0
2663 0
2666 0
2670 0
2675 0
2676 0
2677 0
2678 0
2682 0
2687 0
2689 0
2690 0
2692 0
2693 0
2696 0
2701 0
2704 0
2705 0
2708 0
2709 0
2710 0
2711 0
2717 0
2719 0
2720 0
2721 0
2723 0
2726 0
2727 0
2730 0
2731 0
2732 0
2733 0
2737 0
2741 0
2742 0
2743 0
2745 0
2748 0
2753 0
2754 0
2755 0
2760 0
2763 0
2764 0
2766 0
2767 0
2770 0
2771 0
2772 0
2773 0
2777 0
2778 0
2782 0
2783 0
2790 0
2793 0
2794 0
2795 0
2796 0
2802 0
2803 0
2806 0
2809 0
2812 0
2814 0
2815 0
2817 0
2818 0
2819 0
2821 0
2822 0
2824 0
2825 0
2826 0
2829 0
2837 0
2838 0
2846 0
2848 0
2849 0
2850 0
2851 0
2854 0
2858 0
2860 0
2861 0
2864 0
2865 0
2867 0
2869 0
2875 0
2880 0
2881 0
2883 0
2890 0
2894 0
2899 0
2901 0
2903 0
2904 0
2908 0
2911 0
2912 0
2913 0
2915 0
2918 0
2922 0
2923 0
2924 0
2926 0
2927 0
2928 0
2932 0
2933 0
2936 0
2942 0
2946 0
2950 0
2951 0
2953 0
2954 0
2960 0
2961 0
2963 0
2967 0
2970 0
2972 0
2973 0
2975 0
2977 0
2979 0
2989 0
2992 0
2996 0
2997 0
3003 0
3004 0
3007 0
3010 0
3013 0
3020 0
3025 0
3026 0
3031 0
3033 0
3038 0
3039 0
3040 0
3041 0
3044 0
3049 0
3052 0
3054 0
3055 0
3056 0
3059 0
3062 0
3063 0
3066 0
3068 0
3069 0
3071 0
3073 0
3076 0
3077 0
3082 0
3089 0
3090 0
3092 0
3093 0
3094 0
3097 0
3098 0
3101 0
3102 0
3105 0
3113 0
3116 0
3119 0
3120 0
3122 0
3128 0
3129 0
3132 0
3137 0
3141 0
3147 0
3149 0
3154 0
3157 0
3160 0
3161 0
3162 0
3164 0
3169 0
3173 0
3176 0
3180 0
3182 0
3184 0
3187 0
3190 0
3192 0
3193 0
3194 0
3197 0
3204 0
3215 0
3217 0
3220 0
3221 0
3223 0
3224 0
3226 0
3227 0
3233 0
3238 0
3241 0
3243 0
3246 0
3248 0
3251 0
3259 0
3260 0
3265 0
3267 0
3269 0
3270 0
3275 0
3277 0
3286 0
3291 0
3295 0
3300 0
3301 0
3302 0
3305 0
3307 0
3312 0
3313 0
3316 0
3325 0
3327 0
3328 0
3329 0
3338 0
3339 0
3341 0
3343 0
3344 0
3347 0
3353 0
3359 0
3361 0
3363 0
3366 0
3372 0
3376 0
3378 0
3381 0
3385 0
3386 0
3389 0
3391 0
3395 0
3399 0
3400 0
3407 0
3408 0
3409 0
3410 0
3421 0
3432 0
3434 0
3438 0
3446 0
3449 0
3450 0
3451 0
3452 0
3463 0
3468 0
3475 0
3483 0
3485 0
3489 0
3491 0
3492 0
3504 0
3507 0
3509 0
3512 0
3513 0
3519 0
3524 0
3526 0
3527 0
3528 0
3535 0
3540 0
3541 0
3543 0
3544 0
3545 0
3546 0
3554 0
3555 0
3559 0
3561 0
3562 0
3564 0
3567 0
3578 0
3583 0
3584 0
3586 0
3588 0
3589 0
3591 0
3592 0
3596 0
3597 0
3601 0
3603 0
3604 0
3609 0
3610 0
3616 0
3618 0
3620 0
3621 0
3622 0
3623 0
3628 0
3630 0
3639 0
3645 0
3647 0
3648 0
3654 0
3656 0
3657 0
3658 0
3662 0
3664 0
3667 0
3669 0
3684 0
3697 0
3702 0
3704 0
3706 0
3708 0
3712 0
3713 0
3718 0
3719 0
3722 0
3725 0
3739 0
3741 0
3743 0
3750 0
3752 0
3755 0
3759 0
3762 0
3766 0
3776 0
3781 0
3784 0
3787 0
3789 0
3802 0
3813 0
3818 0
3820 0
3822 0
3824 0
3833 0
3835 0
3836 0
3837 0
3838 0
3840 0
3842 0
3847 0
3850 0
3852 0
3855 0
3870 0
3871 0
3874 0
3876 0
3883 0
3886 0
3888 0
3889 0
3891 0
3898 0
3900 0
3904 0
3907 0
3922 0
3925 0
3933 0
3934 0
3938 0
3940 0
3944 0
3945 0
3946 0
3947 0
3953 0
3958 0
3973 0
3978 0
3979 0
3981 0
3984 0
3986 0
3989 0
3991 0
3992 0
3994 0
3995 0
3997 0
4001 0
4002 0
4008 0
4011 0
4019 0
4026 0
4028 0
4029 0
4033 0
4036 0
4042 0
4047 0
4051 0
4052 0
4061 0
4071 0
4072 0
4074 0
4080 0
4099 0
4102 0
4108 0
4109 0
4111 0
4120 0
4123 0
4128 0
4134 0
4145 0
4147 0
4159 0
4160 0
4161 0
4162 0
4171 0
4186 0
4187 0
4190 0
4196 0
4206 0
4207 0
4214 0
4229 0
4230 0
4232 0
4233 0
4235 0
4236 0
4241 0
4246 0
4260 0
4267 0
4271 0
4272 0
4275 0
4276 0
4288 0
4289 0
4303 0
4319 0
4321 0
4327 0
4328 0
4330 0
4338 0
4341 0
4344 0
4345 0
4347 0
4349 0
4358 0
4360 0
4363 0
4372 0
4373 0
4382 0
4386 0
4392 0
4396 0
4400 0
4405 0
4406 0
4408 0
4411 0
4416 0
4425 0
4446 0
4455 0
4475 0
4477 0
4480 0
4486 0
4487 0
4495 0
4501 0
4514 0
4516 0
4520 0
4525 0
4528 0
4548 0
4555 0
4571 0
4601 0
4602 0
4603 0
4604 0
4607 0
4609 0
4623 0
4626 0
4633 0
4642 0
4678 0
4690 0
4706 0
4712 0
4722 0
4724 0
4731 0
4737 0
4758 0
4759 0
4760 0
4766 0
4767 0
4768 0
4796 0
4800 0
4812 0
4815 0
4818 0
4833 0
4836 0
4840 0
4843 0
4849 0
4887 0
4889 0
4893 0
4897 0
4922 0
4941 0
4942 0
4947 0
4956 0
4971 0
4979 0
4981 0
4984 0
5005 0
5008 0
5009 0
5018 0
5040 0
5053 0
5058 0
5066 0
5073 0
5081 0
5086 0
5105 0
5111 0
5112 0
5118 0
5126 0
5131 0
5144 0
5159 0
5162 0
5170 0
5188 0
5238 0
5239 0
5244 0
5256 0
5258 0
5260 0
5279 0
5297 0
5302 0
5311 0
5318 0
5333 0
5339 0
5344 0
5355 0
5360 0
5362 0
5365 0
5379 0
5380 0
5391 0
5396 0
5401 0
5414 0
5416 0
5418 0
5437 0
5463 0
5478 0
5484 0
5488 0
5490 0
5501 0
5505 0
5510 0
5512 0
5519 0
5520 0
5521 0
5523 0
5524 0
5529 0
5530 0
5533 0
5540 0
5567 0
5590 0
5596 0
5605 0
5625 0
5632 0
5643 0
5650 0
5668 0
5683 0
5689 0
5695 0
5719 0
5726 0
5734 0
5763 0
5772 0
5782 0
5784 0
5823 0
5834 0
5835 0
5837 0
5859 0
5863 0
5864 0
5880 0
5882 0
5883 0
5905 0
5913 0
5931 0
5946 0
5954 0
5961 0
5962 0
5979 0
5994 0
5998 0
6005 0
6028 0
6041 0
6051 0
6054 0
6055 0
6058 0
6061 0
6073 0
6087 0
6099 0
6112 0
6123 0
6143 0
6160 0
6169 0
6191 0
6193 0
6198 0
6235 0
6241 0
6242 0
6259 0
6261 0
6269 0
6271 0
6273 0
6276 0
6285 0
6307 0
6312 0
6316 0
6336 0
6338 0
6345 0
6352 0
6372 0
6377 0
6388 0
6389 0
6398 0
6401 0
6406 0
6407 0
6412 0
6422 0
6424 0
6430 0
6446 0
6447 0
6473 0
6477 0
6481 0
6483 0
6488 0
6498 0
6537 0
6542 0
6586 0
6599 0
6607 0
6623 0
6627 0
6630 0
6631 0
6632 0
6639 0
6640 0
6641 0
6653 0
6663 0
6668 0
6683 0
6715 0
6717 0
6718 0
6734 0
6736 0
6739 0
6740 0
6764 0
6770 0
6773 0
6808 0
6811 0
6814 0
6817 0
6861 0
6862 0
6863 0
6882 0
6884 0
6887 0
6888 0
6903 0
6915 0
6916 0
6917 0
6931 0
6933 0
6942 0
6965 0
6989 0
6996 0
7003 0
7016 0
7030 0
7038 0
7042 0
7046 0
7054 0
7056 0
7057 0
7071 0
7086 0
7095 0
7109 0
7111 0
7114 0
7129 0
7140 0
7165 0
7174 0
7179 0
7181 0
7193 0
7206 0
7218 0
7227 0
7236 0
7238 0
7255 0
7263 0
7264 0
7273 0
7287 0
7296 0
7318 0
7320 0
7321 0
7324 0
7336 0
7345 0
7350 0
7351 0
7363 0
7364 0
7368 0
7397 0
7401 0
7406 0
7411 0
7415 0
7445 0
7459 0
7480 0
7496 0
7500 0
7511 0
7527 0
7531 0
7545 0
7551 0
7565 0
7590 0
7611 0
7619 0
7650 0
7662 0
7675 0
7676 0
7689 0
7703 0
7709 0
7724 0
7744 0
7756 0
7763 0
7789 0
7793 0
7818 0
7838 0
7852 0
7872 0
7875 0
7891 0
7903 0
7917 0
7937 0
7998 0
8012 0
8024 0
8025 0
8026 0
8028 0
8057 0
8067 0
8084 0
8110 0
8231 0
8283 0
8294 0
8353 0
8358 0
8382 0
8383 0
8394 0
8425 0
8453 0
8466 0
8535 0
8549 0
8582 0
8608 0
8614 0
8634 0
8638 0
8654 0
8664 0
8666 0
8695 0
8698 0
8715 0
8762 0
8763 0
8792 0
8819 0
8846 0
8847 0
8865 0
8873 0
8881 0
8966 0
8990 0
8994 0
9023 0
9066 0
9084 0
9183 0
9206 0
9225 0
9227 0
9232 0
9248 0
9249 0
9283 0
9321 0
9328 0
9338 0
9374 0
9379 0
9434 0
9489 0
9567 0
9735 0
9750 0
9847 0
9878 0
9965 0
9981 0
9990 0
10064 0
10115 0
10148 0
10208 0
10210 0
10237 0
10240 0
10249 0
10265 0
10294 0
10378 0
10404 0
10450 0
10470 0
10471 0
10587 0
10634 0
10689 0
10698 0
10729 0
10733 0
10763 0
10802 0
10849 0
10863 0
10879 0
10882 0
10901 0
10949 0
10950 0
11043 0
11079 0
11148 0
11155 0
11158 0
11198 0
11231 0
11232 0
11341 0
11362 0
11417 0
11514 0
11599 0
11600 0
11603 0
11665 0
11752 0
11784 0
12024 0
12040 0
12675 0
12758 0
12769 0
13005 0
13040 0
13074 0
13094 0
13225 0
13403 0
13458 0
13526 0
13600 0
13880 0
14077 0
14115 0
14209 0
14404 0
14410 0
14461 0
14723 0
15021 0
15152 0
15264 0
15299 0
16778 0
17108 0
17177 0
17220 0
17570 0
17820 0
17852 0
18474 0
18643 0
18929 0
18935 0
